; benchmark generated from python API
(set-info :status unknown)
(declare-fun strlen_149_64 () (_ BitVec 64))
(declare-fun args_0_8 () (_ BitVec 8))
(declare-fun strlen_78_64 () (_ BitVec 64))
(declare-fun strncmp_ret_79_32 () (_ BitVec 32))
(declare-fun strlen_81_64 () (_ BitVec 64))
(declare-fun args_1_8 () (_ BitVec 8))
(declare-fun strlen_159_64 () (_ BitVec 64))
(declare-fun strlen_584_64 () (_ BitVec 64))
(declare-fun strlen_606_64 () (_ BitVec 64))
(declare-fun strlen_637_64 () (_ BitVec 64))
(declare-fun strlen_671_64 () (_ BitVec 64))
(declare-fun strlen_713_64 () (_ BitVec 64))
(declare-fun strncmp_ret_714_32 () (_ BitVec 32))
(declare-fun strncmp_ret_82_32 () (_ BitVec 32))
(declare-fun strlen_173_64 () (_ BitVec 64))
(declare-fun args_2_8 () (_ BitVec 8))
(declare-fun strlen_84_64 () (_ BitVec 64))
(declare-fun strncmp_ret_85_32 () (_ BitVec 32))
(declare-fun strlen_191_64 () (_ BitVec 64))
(declare-fun args_3_8 () (_ BitVec 8))
(declare-fun strlen_87_64 () (_ BitVec 64))
(declare-fun strncmp_ret_88_32 () (_ BitVec 32))
(declare-fun strlen_213_64 () (_ BitVec 64))
(declare-fun args_4_8 () (_ BitVec 8))
(declare-fun strlen_90_64 () (_ BitVec 64))
(declare-fun strncmp_ret_91_32 () (_ BitVec 32))
(declare-fun strlen_93_64 () (_ BitVec 64))
(declare-fun args_5_16 () (_ BitVec 16))
(declare-fun strncmp_ret_94_32 () (_ BitVec 32))
(declare-fun args_6_16 () (_ BitVec 16))
(declare-fun num_bytes_97_64 () (_ BitVec 64))
(declare-fun num_bytes_96_64 () (_ BitVec 64))
(declare-fun num_bytes_95_64 () (_ BitVec 64))
(declare-fun strncmp_ret_150_32 () (_ BitVec 32))
(declare-fun strncmp_ret_160_32 () (_ BitVec 32))
(declare-fun strncmp_ret_174_32 () (_ BitVec 32))
(declare-fun strncmp_ret_192_32 () (_ BitVec 32))
(declare-fun strncmp_ret_214_32 () (_ BitVec 32))
(declare-fun strlen_236_64 () (_ BitVec 64))
(declare-fun args_7_16 () (_ BitVec 16))
(declare-fun strncmp_ret_237_32 () (_ BitVec 32))
(declare-fun strlen_262_64 () (_ BitVec 64))
(declare-fun args_8_16 () (_ BitVec 16))
(declare-fun strncmp_ret_263_32 () (_ BitVec 32))
(declare-fun strlen_292_64 () (_ BitVec 64))
(declare-fun args_9_16 () (_ BitVec 16))
(declare-fun strncmp_ret_293_32 () (_ BitVec 32))
(declare-fun strlen_322_64 () (_ BitVec 64))
(declare-fun args_10_32 () (_ BitVec 32))
(declare-fun strncmp_ret_323_32 () (_ BitVec 32))
(declare-fun strlen_352_64 () (_ BitVec 64))
(declare-fun args_11_32 () (_ BitVec 32))
(declare-fun strncmp_ret_353_32 () (_ BitVec 32))
(declare-fun strlen_382_64 () (_ BitVec 64))
(declare-fun args_12_32 () (_ BitVec 32))
(declare-fun strncmp_ret_383_32 () (_ BitVec 32))
(declare-fun strlen_412_64 () (_ BitVec 64))
(declare-fun args_13_32 () (_ BitVec 32))
(declare-fun strncmp_ret_413_32 () (_ BitVec 32))
(declare-fun strlen_442_64 () (_ BitVec 64))
(declare-fun args_14_32 () (_ BitVec 32))
(declare-fun strncmp_ret_443_32 () (_ BitVec 32))
(declare-fun strlen_472_64 () (_ BitVec 64))
(declare-fun args_15_64 () (_ BitVec 64))
(declare-fun strncmp_ret_473_32 () (_ BitVec 32))
(declare-fun args_16_64 () (_ BitVec 64))
(declare-fun strlen_502_64 () (_ BitVec 64))
(declare-fun strncmp_ret_503_32 () (_ BitVec 32))
(declare-fun strncmp_ret_585_32 () (_ BitVec 32))
(declare-fun strncmp_ret_607_32 () (_ BitVec 32))
(declare-fun strncmp_ret_638_32 () (_ BitVec 32))
(declare-fun strncmp_ret_672_32 () (_ BitVec 32))
(declare-fun strlen_763_64 () (_ BitVec 64))
(declare-fun strncmp_ret_764_32 () (_ BitVec 32))
(assert
 (let ((?x1761 (bvadd (_ bv576460752303357824 64) strlen_149_64)))
 (let (($x69 (= (_ bv0 8) args_0_8)))
 (let ((?x46 (ite $x69 (_ bv576460752303357824 64) (_ bv576460752303357825 64))))
 (= ?x46 ?x1761)))))
(assert
 (let ((?x101 (bvadd (_ bv576460752303357824 64) strlen_78_64)))
 (let (($x69 (= (_ bv0 8) args_0_8)))
 (let ((?x46 (ite $x69 (_ bv576460752303357824 64) (_ bv576460752303357825 64))))
 (= ?x46 ?x101)))))
(assert
 (let (($x104 (bvule (_ bv2 64) strlen_78_64)))
 (let (($x48 (= (_ bv2 64) strlen_78_64)))
 (let (($x175 (or $x48 $x104)))
 (let (($x176 (not $x175)))
 (let (($x57 (= (_ bv45 8) args_0_8)))
 (let (($x174 (not $x57)))
 (or $x174 $x176))))))))
(assert
 (= (_ bv1 32) strncmp_ret_79_32))
(assert
 (let ((?x158 (bvadd (_ bv576460752303357826 64) strlen_81_64)))
 (let (($x121 (= (_ bv0 8) args_1_8)))
 (let ((?x123 (ite $x121 (_ bv576460752303357826 64) (_ bv576460752303357827 64))))
 (= ?x123 ?x158)))))
(assert
 (let ((?x9588 (bvadd (_ bv576460752303357826 64) strlen_159_64)))
 (let (($x121 (= (_ bv0 8) args_1_8)))
 (let ((?x123 (ite $x121 (_ bv576460752303357826 64) (_ bv576460752303357827 64))))
 (= ?x123 ?x9588)))))
(assert
 (let ((?x26228 (bvadd (_ bv576460752303357826 64) strlen_584_64)))
 (let (($x121 (= (_ bv0 8) args_1_8)))
 (let ((?x123 (ite $x121 (_ bv576460752303357826 64) (_ bv576460752303357827 64))))
 (= ?x123 ?x26228)))))
(assert
 (let ((?x23989 (bvadd (_ bv576460752303357826 64) strlen_606_64)))
 (let (($x121 (= (_ bv0 8) args_1_8)))
 (let ((?x123 (ite $x121 (_ bv576460752303357826 64) (_ bv576460752303357827 64))))
 (= ?x123 ?x23989)))))
(assert
 (let ((?x11067 (bvadd (_ bv576460752303357826 64) strlen_637_64)))
 (let (($x121 (= (_ bv0 8) args_1_8)))
 (let ((?x123 (ite $x121 (_ bv576460752303357826 64) (_ bv576460752303357827 64))))
 (= ?x123 ?x11067)))))
(assert
 (let ((?x22538 (bvadd (_ bv576460752303357826 64) strlen_671_64)))
 (let (($x121 (= (_ bv0 8) args_1_8)))
 (let ((?x123 (ite $x121 (_ bv576460752303357826 64) (_ bv576460752303357827 64))))
 (= ?x123 ?x22538)))))
(assert
 (let ((?x24346 (bvadd (_ bv576460752303357826 64) strlen_713_64)))
 (let (($x121 (= (_ bv0 8) args_1_8)))
 (let ((?x123 (ite $x121 (_ bv576460752303357826 64) (_ bv576460752303357827 64))))
 (= ?x123 ?x24346)))))
(assert
 (= (_ bv1 32) strncmp_ret_714_32))
(assert
 (let (($x161 (bvule (_ bv2 64) strlen_81_64)))
 (let (($x136 (= (_ bv2 64) strlen_81_64)))
 (let (($x129 (or $x136 $x161)))
 (let (($x130 (not $x129)))
 (let (($x142 (= (_ bv45 8) args_1_8)))
 (let (($x204 (not $x142)))
 (or $x204 $x130))))))))
(assert
 (let (($x26147 (bvule (_ bv7 64) strlen_584_64)))
 (let (($x10963 (= (_ bv7 64) strlen_584_64)))
 (let (($x7163 (or $x10963 $x26147)))
 (let (($x17339 (not $x7163)))
 (let (($x20811 (= (_ bv97 8) args_1_8)))
 (let (($x21888 (not $x20811)))
 (or $x21888 $x17339))))))))
(assert
 (let (($x14241 (bvule (_ bv4 64) strlen_606_64)))
 (let (($x17473 (= (_ bv4 64) strlen_606_64)))
 (let (($x32598 (or $x17473 $x14241)))
 (let (($x17614 (not $x32598)))
 (let (($x16051 (= (_ bv121 8) args_1_8)))
 (let (($x23961 (not $x16051)))
 (or $x23961 $x17614))))))))
(assert
 (let (($x8285 (bvule (_ bv5 64) strlen_637_64)))
 (let (($x25072 (= (_ bv5 64) strlen_637_64)))
 (let (($x34941 (or $x25072 $x8285)))
 (let (($x18425 (not $x34941)))
 (let (($x28238 (= (_ bv115 8) args_1_8)))
 (let (($x28073 (not $x28238)))
 (or $x28073 $x18425))))))))
(assert
 (let (($x29282 (bvule (_ bv3 64) strlen_671_64)))
 (let (($x34950 (= (_ bv3 64) strlen_671_64)))
 (let (($x19419 (or $x34950 $x29282)))
 (let (($x28524 (not $x19419)))
 (let (($x23235 (= (_ bv108 8) args_1_8)))
 (let (($x14444 (not $x23235)))
 (or $x14444 $x28524))))))))
(assert
 (let (($x26951 (bvule (_ bv8 64) strlen_713_64)))
 (let (($x39656 (= (_ bv8 64) strlen_713_64)))
 (let (($x24148 (or $x39656 $x26951)))
 (let (($x38739 (not $x24148)))
 (let (($x32988 (= (_ bv100 8) args_1_8)))
 (let (($x36669 (not $x32988)))
 (or $x36669 $x38739))))))))
(assert
 (= (_ bv1 32) strncmp_ret_82_32))
(assert
 (let ((?x10912 (bvadd (_ bv576460752303357828 64) strlen_173_64)))
 (let (($x191 (= (_ bv0 8) args_2_8)))
 (let ((?x189 (ite $x191 (_ bv576460752303357828 64) (_ bv576460752303357829 64))))
 (= ?x189 ?x10912)))))
(assert
 (let ((?x764 (bvadd (_ bv576460752303357828 64) strlen_84_64)))
 (let (($x191 (= (_ bv0 8) args_2_8)))
 (let ((?x189 (ite $x191 (_ bv576460752303357828 64) (_ bv576460752303357829 64))))
 (= ?x189 ?x764)))))
(assert
 (let (($x767 (bvule (_ bv2 64) strlen_84_64)))
 (let (($x746 (= (_ bv2 64) strlen_84_64)))
 (let (($x169 (or $x746 $x767)))
 (let (($x167 (not $x169)))
 (let (($x747 (= (_ bv45 8) args_2_8)))
 (let (($x131 (not $x747)))
 (or $x131 $x167))))))))
(assert
 (= (_ bv1 32) strncmp_ret_85_32))
(assert
 (let ((?x12963 (bvadd (_ bv576460752303357830 64) strlen_191_64)))
 (let (($x96 (= (_ bv0 8) args_3_8)))
 (let ((?x157 (ite $x96 (_ bv576460752303357830 64) (_ bv576460752303357831 64))))
 (= ?x157 ?x12963)))))
(assert
 (let ((?x616 (bvadd (_ bv576460752303357830 64) strlen_87_64)))
 (let (($x96 (= (_ bv0 8) args_3_8)))
 (let ((?x157 (ite $x96 (_ bv576460752303357830 64) (_ bv576460752303357831 64))))
 (= ?x157 ?x616)))))
(assert
 (let (($x281 (bvule (_ bv2 64) strlen_87_64)))
 (let (($x165 (= (_ bv2 64) strlen_87_64)))
 (let (($x234 (or $x165 $x281)))
 (let (($x233 (not $x234)))
 (let (($x134 (= (_ bv45 8) args_3_8)))
 (let (($x561 (not $x134)))
 (or $x561 $x233))))))))
(assert
 (= (_ bv1 32) strncmp_ret_88_32))
(assert
 (let ((?x13037 (bvadd (_ bv576460752303357832 64) strlen_213_64)))
 (let (($x268 (= (_ bv0 8) args_4_8)))
 (let ((?x342 (ite $x268 (_ bv576460752303357832 64) (_ bv576460752303357833 64))))
 (= ?x342 ?x13037)))))
(assert
 (let ((?x729 (bvadd (_ bv576460752303357832 64) strlen_90_64)))
 (let (($x268 (= (_ bv0 8) args_4_8)))
 (let ((?x342 (ite $x268 (_ bv576460752303357832 64) (_ bv576460752303357833 64))))
 (= ?x342 ?x729)))))
(assert
 (let (($x97 (bvule (_ bv2 64) strlen_90_64)))
 (let (($x609 (= (_ bv2 64) strlen_90_64)))
 (let (($x815 (or $x609 $x97)))
 (let (($x852 (not $x815)))
 (let (($x357 (= (_ bv45 8) args_4_8)))
 (let (($x812 (not $x357)))
 (or $x812 $x852))))))))
(assert
 (= (_ bv1 32) strncmp_ret_91_32))
(assert
 (let ((?x589 (bvadd (_ bv576460752303357834 64) strlen_93_64)))
 (let ((?x273 ((_ extract 7 0) args_5_16)))
 (let (($x258 (= (_ bv0 8) ?x273)))
 (let ((?x446 (ite $x258 (_ bv576460752303357835 64) (_ bv576460752303357836 64))))
 (= ?x446 ?x589))))))
(assert
 (let ((?x242 ((_ extract 15 8) args_5_16)))
 (= (_ bv45 8) ?x242)))
(assert
 (let (($x619 (bvule (_ bv2 64) strlen_93_64)))
 (let (($x221 (= (_ bv2 64) strlen_93_64)))
 (or $x221 $x619))))
(assert
 (let (($x600 (bvule (_ bv1 64) strlen_93_64)))
 (let (($x614 (not $x600)))
 (let ((?x273 ((_ extract 7 0) args_5_16)))
 (let (($x455 (= (_ bv105 8) ?x273)))
 (or $x455 $x614))))))
(assert
 (= (_ bv0 32) strncmp_ret_94_32))
(assert
 (let ((?x896 ((_ extract 15 14) args_6_16)))
 (let (($x30501 (= (_ bv0 2) ?x896)))
 (let (($x30511 (not $x30501)))
 (let ((?x182 ((_ extract 15 8) args_6_16)))
 (let (($x183 (bvule (_ bv48 8) ?x182)))
 (let (($x404 (not $x183)))
 (let ((?x441 ((_ extract 13 8) args_6_16)))
 (let (($x351 (bvule ?x441 (_ bv57 6))))
 (let (($x411 (not $x351)))
 (let (($x30466 (or $x411 $x404 $x30511)))
 (let (($x823 (= (_ bv1 64) num_bytes_97_64)))
 (let (($x9786 (not $x823)))
 (let ((?x409 ((_ extract 7 6) args_6_16)))
 (let (($x972 (= (_ bv0 2) ?x409)))
 (let (($x8291 (not $x972)))
 (let ((?x779 ((_ extract 7 0) args_6_16)))
 (let (($x572 (bvule (_ bv48 8) ?x779)))
 (let (($x828 (not $x572)))
 (let ((?x700 ((_ extract 5 0) args_6_16)))
 (let (($x864 (bvule ?x700 (_ bv57 6))))
 (let (($x544 (not $x864)))
 (let (($x30504 (or $x544 $x828 $x8291)))
 (let (($x30489 (not $x30504)))
 (let (($x30347 (or $x30489 $x9786 $x30466)))
 (let (($x20160 (not $x30347)))
 (let (($x30485 (not $x30466)))
 (let (($x731 (= (_ bv0 64) num_bytes_97_64)))
 (let (($x30483 (not $x731)))
 (let (($x30462 (or $x30483 $x30485)))
 (let (($x15481 (not $x30462)))
 (let (($x649 (= (_ bv2 64) num_bytes_97_64)))
 (let (($x12291 (not $x649)))
 (let (($x18389 (or $x12291 $x30504 $x30466)))
 (let (($x18786 (not $x18389)))
 (or $x18786 $x15481 $x20160))))))))))))))))))))))))))))))))))))
(assert
 (let (($x724 (= (_ bv0 64) num_bytes_96_64)))
 (let (($x24283 (not $x724)))
 (let (($x217 (= (_ bv1 64) num_bytes_96_64)))
 (let (($x848 (not $x217)))
 (let ((?x409 ((_ extract 7 6) args_6_16)))
 (let (($x972 (= (_ bv0 2) ?x409)))
 (let (($x8291 (not $x972)))
 (let ((?x779 ((_ extract 7 0) args_6_16)))
 (let (($x572 (bvule (_ bv48 8) ?x779)))
 (let (($x828 (not $x572)))
 (let ((?x700 ((_ extract 5 0) args_6_16)))
 (let (($x864 (bvule ?x700 (_ bv57 6))))
 (let (($x544 (not $x864)))
 (let (($x30504 (or $x544 $x828 $x8291)))
 (let (($x30489 (not $x30504)))
 (let (($x30377 (ite $x30489 $x848 $x24283)))
 (not $x30377))))))))))))))))))
(assert
 (let (($x717 (= (_ bv0 64) num_bytes_95_64)))
 (let (($x11655 (not $x717)))
 (let (($x515 (= (_ bv1 64) num_bytes_95_64)))
 (let (($x974 (not $x515)))
 (let ((?x409 ((_ extract 7 6) args_6_16)))
 (let (($x972 (= (_ bv0 2) ?x409)))
 (let (($x8291 (not $x972)))
 (let ((?x779 ((_ extract 7 0) args_6_16)))
 (let (($x572 (bvule (_ bv48 8) ?x779)))
 (let (($x828 (not $x572)))
 (let ((?x700 ((_ extract 5 0) args_6_16)))
 (let (($x864 (bvule ?x700 (_ bv57 6))))
 (let (($x544 (not $x864)))
 (let (($x30504 (or $x544 $x828 $x8291)))
 (let (($x30489 (not $x30504)))
 (let (($x30478 (ite $x30489 $x974 $x11655)))
 (not $x30478))))))))))))))))))
(assert
 (= (_ bv1 32) strncmp_ret_150_32))
(assert
 (= (_ bv1 32) strncmp_ret_160_32))
(assert
 (= (_ bv1 32) strncmp_ret_174_32))
(assert
 (= (_ bv1 32) strncmp_ret_192_32))
(assert
 (= (_ bv1 32) strncmp_ret_214_32))
(assert
 (let ((?x13395 (bvadd (_ bv576460752303357840 64) strlen_236_64)))
 (let ((?x1558 ((_ extract 7 0) args_7_16)))
 (let (($x1643 (= (_ bv0 8) ?x1558)))
 (let ((?x1652 (ite $x1643 (_ bv576460752303357841 64) (_ bv576460752303357842 64))))
 (let ((?x1387 ((_ extract 15 8) args_7_16)))
 (let (($x1480 (= (_ bv0 8) ?x1387)))
 (let ((?x1653 (ite $x1480 (_ bv576460752303357840 64) ?x1652)))
 (= ?x1653 ?x13395)))))))))
(assert
 (let (($x13398 (bvule (_ bv6 64) strlen_236_64)))
 (let (($x13368 (= (_ bv6 64) strlen_236_64)))
 (let (($x13509 (or $x13368 $x13398)))
 (let (($x12937 (not $x13509)))
 (let ((?x1387 ((_ extract 15 8) args_7_16)))
 (let (($x1373 (= (_ bv45 8) ?x1387)))
 (let (($x2360 (not $x1373)))
 (let (($x13403 (bvule (_ bv1 64) strlen_236_64)))
 (let (($x13404 (not $x13403)))
 (let ((?x1558 ((_ extract 7 0) args_7_16)))
 (let (($x13381 (= (_ bv110 8) ?x1558)))
 (let (($x13055 (or $x13381 $x13404)))
 (let (($x14391 (not $x13055)))
 (or $x14391 $x2360 $x12937)))))))))))))))
(assert
 (= (_ bv1 32) strncmp_ret_237_32))
(assert
 (let ((?x14654 (bvadd (_ bv576460752303357843 64) strlen_262_64)))
 (let ((?x1852 ((_ extract 7 0) args_8_16)))
 (let (($x2370 (= (_ bv0 8) ?x1852)))
 (let ((?x2404 (ite $x2370 (_ bv576460752303357844 64) (_ bv576460752303357845 64))))
 (let ((?x2032 ((_ extract 15 8) args_8_16)))
 (let (($x1997 (= (_ bv0 8) ?x2032)))
 (let ((?x2405 (ite $x1997 (_ bv576460752303357843 64) ?x2404)))
 (= ?x2405 ?x14654)))))))))
(assert
 (let (($x14537 (bvule (_ bv6 64) strlen_262_64)))
 (let (($x14489 (= (_ bv6 64) strlen_262_64)))
 (let (($x15356 (or $x14489 $x14537)))
 (let (($x15858 (not $x15356)))
 (let ((?x2032 ((_ extract 15 8) args_8_16)))
 (let (($x1851 (= (_ bv45 8) ?x2032)))
 (let (($x3119 (not $x1851)))
 (let (($x14758 (bvule (_ bv1 64) strlen_262_64)))
 (let (($x14218 (not $x14758)))
 (let ((?x1852 ((_ extract 7 0) args_8_16)))
 (let (($x14809 (= (_ bv110 8) ?x1852)))
 (let (($x15883 (or $x14809 $x14218)))
 (let (($x16180 (not $x15883)))
 (or $x16180 $x3119 $x15858)))))))))))))))
(assert
 (= (_ bv1 32) strncmp_ret_263_32))
(assert
 (let ((?x16297 (bvadd (_ bv576460752303357846 64) strlen_292_64)))
 (let ((?x2852 ((_ extract 7 0) args_9_16)))
 (let (($x3129 (= (_ bv0 8) ?x2852)))
 (let ((?x3112 (ite $x3129 (_ bv576460752303357847 64) (_ bv576460752303357848 64))))
 (let ((?x2821 ((_ extract 15 8) args_9_16)))
 (let (($x3121 (= (_ bv0 8) ?x2821)))
 (let ((?x3111 (ite $x3121 (_ bv576460752303357846 64) ?x3112)))
 (= ?x3111 ?x16297)))))))))
(assert
 (let (($x16185 (bvule (_ bv6 64) strlen_292_64)))
 (let (($x4065 (= (_ bv6 64) strlen_292_64)))
 (let (($x16897 (or $x4065 $x16185)))
 (let (($x16898 (not $x16897)))
 (let ((?x2821 ((_ extract 15 8) args_9_16)))
 (let (($x2847 (= (_ bv45 8) ?x2821)))
 (let (($x4009 (not $x2847)))
 (let (($x7686 (bvule (_ bv1 64) strlen_292_64)))
 (let (($x15928 (not $x7686)))
 (let ((?x2852 ((_ extract 7 0) args_9_16)))
 (let (($x11951 (= (_ bv110 8) ?x2852)))
 (let (($x16820 (or $x11951 $x15928)))
 (let (($x16823 (not $x16820)))
 (or $x16823 $x4009 $x16898)))))))))))))))
(assert
 (= (_ bv1 32) strncmp_ret_293_32))
(assert
 (let ((?x17213 (bvadd (_ bv576460752303357849 64) strlen_322_64)))
 (let ((?x3092 ((_ extract 7 0) args_10_32)))
 (let (($x3393 (= (_ bv0 8) ?x3092)))
 (let ((?x3961 (ite $x3393 (_ bv576460752303357852 64) (_ bv576460752303357853 64))))
 (let ((?x3366 ((_ extract 15 8) args_10_32)))
 (let (($x3331 (= (_ bv0 8) ?x3366)))
 (let ((?x3960 (ite $x3331 (_ bv576460752303357851 64) ?x3961)))
 (let ((?x3358 ((_ extract 23 16) args_10_32)))
 (let (($x3984 (= (_ bv0 8) ?x3358)))
 (let ((?x3959 (ite $x3984 (_ bv576460752303357850 64) ?x3960)))
 (let ((?x3316 ((_ extract 31 24) args_10_32)))
 (let (($x3318 (= (_ bv0 8) ?x3316)))
 (let ((?x3958 (ite $x3318 (_ bv576460752303357849 64) ?x3959)))
 (= ?x3958 ?x17213)))))))))))))))
(assert
 (let (($x17235 (bvule (_ bv6 64) strlen_322_64)))
 (let (($x16328 (= (_ bv6 64) strlen_322_64)))
 (let (($x2235 (or $x16328 $x17235)))
 (let (($x1052 (not $x2235)))
 (let ((?x3316 ((_ extract 31 24) args_10_32)))
 (let (($x3302 (= (_ bv45 8) ?x3316)))
 (let (($x4328 (not $x3302)))
 (let (($x17514 (bvule (_ bv1 64) strlen_322_64)))
 (let (($x17515 (not $x17514)))
 (let ((?x3358 ((_ extract 23 16) args_10_32)))
 (let (($x15980 (= (_ bv110 8) ?x3358)))
 (let (($x625 (or $x15980 $x17515)))
 (let (($x859 (not $x625)))
 (let (($x17518 (bvule (_ bv2 64) strlen_322_64)))
 (let (($x17519 (not $x17518)))
 (let ((?x3366 ((_ extract 15 8) args_10_32)))
 (let (($x17007 (= (_ bv111 8) ?x3366)))
 (let (($x17027 (or $x17007 $x17519)))
 (let (($x17732 (not $x17027)))
 (let (($x17522 (bvule (_ bv3 64) strlen_322_64)))
 (let (($x17523 (not $x17522)))
 (let ((?x3092 ((_ extract 7 0) args_10_32)))
 (let (($x17150 (= (_ bv103 8) ?x3092)))
 (let (($x6547 (or $x17150 $x17523)))
 (let (($x15166 (not $x6547)))
 (or $x15166 $x17732 $x859 $x4328 $x1052)))))))))))))))))))))))))))
(assert
 (= (_ bv1 32) strncmp_ret_323_32))
(assert
 (let ((?x15761 (bvadd (_ bv576460752303357854 64) strlen_352_64)))
 (let ((?x4132 ((_ extract 7 0) args_11_32)))
 (let (($x3889 (= (_ bv0 8) ?x4132)))
 (let ((?x1118 (ite $x3889 (_ bv576460752303357857 64) (_ bv576460752303357858 64))))
 (let ((?x4320 ((_ extract 15 8) args_11_32)))
 (let (($x4329 (= (_ bv0 8) ?x4320)))
 (let ((?x2993 (ite $x4329 (_ bv576460752303357856 64) ?x1118)))
 (let ((?x3930 ((_ extract 23 16) args_11_32)))
 (let (($x4473 (= (_ bv0 8) ?x3930)))
 (let ((?x2992 (ite $x4473 (_ bv576460752303357855 64) ?x2993)))
 (let ((?x3738 ((_ extract 31 24) args_11_32)))
 (let (($x3872 (= (_ bv0 8) ?x3738)))
 (let ((?x3164 (ite $x3872 (_ bv576460752303357854 64) ?x2992)))
 (= ?x3164 ?x15761)))))))))))))))
(assert
 (let (($x16091 (bvule (_ bv6 64) strlen_352_64)))
 (let (($x16419 (= (_ bv6 64) strlen_352_64)))
 (let (($x17357 (or $x16419 $x16091)))
 (let (($x6792 (not $x17357)))
 (let ((?x3738 ((_ extract 31 24) args_11_32)))
 (let (($x3860 (= (_ bv45 8) ?x3738)))
 (let (($x5387 (not $x3860)))
 (let (($x17642 (bvule (_ bv1 64) strlen_352_64)))
 (let (($x17552 (not $x17642)))
 (let ((?x3930 ((_ extract 23 16) args_11_32)))
 (let (($x16214 (= (_ bv110 8) ?x3930)))
 (let (($x2753 (or $x16214 $x17552)))
 (let (($x1097 (not $x2753)))
 (let (($x17653 (bvule (_ bv2 64) strlen_352_64)))
 (let (($x17987 (not $x17653)))
 (let ((?x4320 ((_ extract 15 8) args_11_32)))
 (let (($x16424 (= (_ bv111 8) ?x4320)))
 (let (($x7159 (or $x16424 $x17987)))
 (let (($x6798 (not $x7159)))
 (let ((?x4132 ((_ extract 7 0) args_11_32)))
 (let (($x2950 (= (_ bv103 8) ?x4132)))
 (let (($x17758 (bvule (_ bv3 64) strlen_352_64)))
 (let (($x16100 (not $x17758)))
 (let (($x1036 (or $x16100 $x2950)))
 (let (($x18811 (not $x1036)))
 (or $x18811 $x6798 $x1097 $x5387 $x6792)))))))))))))))))))))))))))
(assert
 (= (_ bv1 32) strncmp_ret_353_32))
(assert
 (let ((?x8527 (bvadd (_ bv576460752303357859 64) strlen_382_64)))
 (let ((?x4643 ((_ extract 7 0) args_12_32)))
 (let (($x4664 (= (_ bv0 8) ?x4643)))
 (let ((?x4502 (ite $x4664 (_ bv576460752303357862 64) (_ bv576460752303357863 64))))
 (let ((?x4615 ((_ extract 15 8) args_12_32)))
 (let (($x5052 (= (_ bv0 8) ?x4615)))
 (let ((?x5315 (ite $x5052 (_ bv576460752303357861 64) ?x4502)))
 (let ((?x4639 ((_ extract 23 16) args_12_32)))
 (let (($x5295 (= (_ bv0 8) ?x4639)))
 (let ((?x5054 (ite $x5295 (_ bv576460752303357860 64) ?x5315)))
 (let ((?x4500 ((_ extract 31 24) args_12_32)))
 (let (($x4659 (= (_ bv0 8) ?x4500)))
 (let ((?x5316 (ite $x4659 (_ bv576460752303357859 64) ?x5054)))
 (= ?x5316 ?x8527)))))))))))))))
(assert
 (let (($x8555 (bvule (_ bv6 64) strlen_382_64)))
 (let (($x8618 (= (_ bv6 64) strlen_382_64)))
 (let (($x18082 (or $x8618 $x8555)))
 (let (($x4570 (not $x18082)))
 (let ((?x4500 ((_ extract 31 24) args_12_32)))
 (let (($x4877 (= (_ bv45 8) ?x4500)))
 (let (($x5808 (not $x4877)))
 (let (($x8225 (bvule (_ bv1 64) strlen_382_64)))
 (let (($x8586 (not $x8225)))
 (let ((?x4639 ((_ extract 23 16) args_12_32)))
 (let (($x8200 (= (_ bv110 8) ?x4639)))
 (let (($x19509 (or $x8200 $x8586)))
 (let (($x4805 (not $x19509)))
 (let ((?x4615 ((_ extract 15 8) args_12_32)))
 (let (($x9540 (= (_ bv111 8) ?x4615)))
 (let (($x8654 (bvule (_ bv2 64) strlen_382_64)))
 (let (($x7464 (not $x8654)))
 (let (($x17030 (or $x7464 $x9540)))
 (let (($x11998 (not $x17030)))
 (let (($x9778 (bvule (_ bv3 64) strlen_382_64)))
 (let (($x8660 (not $x9778)))
 (let ((?x4643 ((_ extract 7 0) args_12_32)))
 (let (($x7486 (= (_ bv103 8) ?x4643)))
 (let (($x19497 (or $x7486 $x8660)))
 (let (($x19361 (not $x19497)))
 (or $x19361 $x11998 $x4805 $x5808 $x4570)))))))))))))))))))))))))))
(assert
 (= (_ bv1 32) strncmp_ret_383_32))
(assert
 (let ((?x16932 (bvadd (_ bv576460752303357864 64) strlen_412_64)))
 (let ((?x5193 ((_ extract 7 0) args_13_32)))
 (let (($x5810 (= (_ bv0 8) ?x5193)))
 (let ((?x5941 (ite $x5810 (_ bv576460752303357867 64) (_ bv576460752303357868 64))))
 (let ((?x5752 ((_ extract 15 8) args_13_32)))
 (let (($x5809 (= (_ bv0 8) ?x5752)))
 (let ((?x5940 (ite $x5809 (_ bv576460752303357866 64) ?x5941)))
 (let ((?x5879 ((_ extract 23 16) args_13_32)))
 (let (($x5976 (= (_ bv0 8) ?x5879)))
 (let ((?x5939 (ite $x5976 (_ bv576460752303357865 64) ?x5940)))
 (let ((?x5380 ((_ extract 31 24) args_13_32)))
 (let (($x5374 (= (_ bv0 8) ?x5380)))
 (let ((?x5938 (ite $x5374 (_ bv576460752303357864 64) ?x5939)))
 (= ?x5938 ?x16932)))))))))))))))
(assert
 (let (($x17055 (bvule (_ bv6 64) strlen_412_64)))
 (let (($x18709 (= (_ bv6 64) strlen_412_64)))
 (let (($x19170 (or $x18709 $x17055)))
 (let (($x15275 (not $x19170)))
 (let ((?x5380 ((_ extract 31 24) args_13_32)))
 (let (($x5591 (= (_ bv45 8) ?x5380)))
 (let (($x6417 (not $x5591)))
 (let ((?x5879 ((_ extract 23 16) args_13_32)))
 (let (($x18746 (= (_ bv110 8) ?x5879)))
 (let (($x16581 (bvule (_ bv1 64) strlen_412_64)))
 (let (($x3716 (not $x16581)))
 (let (($x13873 (or $x3716 $x18746)))
 (let (($x18991 (not $x13873)))
 (let (($x383 (bvule (_ bv2 64) strlen_412_64)))
 (let (($x19314 (not $x383)))
 (let ((?x5752 ((_ extract 15 8) args_13_32)))
 (let (($x18515 (= (_ bv111 8) ?x5752)))
 (let (($x18210 (or $x18515 $x19314)))
 (let (($x8390 (not $x18210)))
 (let (($x18435 (bvule (_ bv3 64) strlen_412_64)))
 (let (($x15781 (not $x18435)))
 (let ((?x5193 ((_ extract 7 0) args_13_32)))
 (let (($x15745 (= (_ bv103 8) ?x5193)))
 (let (($x19681 (or $x15745 $x15781)))
 (let (($x1421 (not $x19681)))
 (or $x1421 $x8390 $x18991 $x6417 $x15275)))))))))))))))))))))))))))
(assert
 (= (_ bv1 32) strncmp_ret_413_32))
(assert
 (let ((?x19381 (bvadd (_ bv576460752303357869 64) strlen_442_64)))
 (let ((?x6356 ((_ extract 7 0) args_14_32)))
 (let (($x6416 (= (_ bv0 8) ?x6356)))
 (let ((?x6969 (ite $x6416 (_ bv576460752303357872 64) (_ bv576460752303357873 64))))
 (let ((?x6433 ((_ extract 15 8) args_14_32)))
 (let (($x6523 (= (_ bv0 8) ?x6433)))
 (let ((?x6966 (ite $x6523 (_ bv576460752303357871 64) ?x6969)))
 (let ((?x5337 ((_ extract 23 16) args_14_32)))
 (let (($x6994 (= (_ bv0 8) ?x5337)))
 (let ((?x6965 (ite $x6994 (_ bv576460752303357870 64) ?x6966)))
 (let ((?x6270 ((_ extract 31 24) args_14_32)))
 (let (($x5985 (= (_ bv0 8) ?x6270)))
 (let ((?x6964 (ite $x5985 (_ bv576460752303357869 64) ?x6965)))
 (= ?x6964 ?x19381)))))))))))))))
(assert
 (let (($x19723 (bvule (_ bv6 64) strlen_442_64)))
 (let (($x17191 (= (_ bv6 64) strlen_442_64)))
 (let (($x19144 (or $x17191 $x19723)))
 (let (($x20353 (not $x19144)))
 (let ((?x6270 ((_ extract 31 24) args_14_32)))
 (let (($x5368 (= (_ bv45 8) ?x6270)))
 (let (($x8173 (not $x5368)))
 (let (($x17768 (bvule (_ bv1 64) strlen_442_64)))
 (let (($x16646 (not $x17768)))
 (let ((?x5337 ((_ extract 23 16) args_14_32)))
 (let (($x18031 (= (_ bv110 8) ?x5337)))
 (let (($x17113 (or $x18031 $x16646)))
 (let (($x8413 (not $x17113)))
 (let ((?x6433 ((_ extract 15 8) args_14_32)))
 (let (($x12019 (= (_ bv111 8) ?x6433)))
 (let (($x19683 (bvule (_ bv2 64) strlen_442_64)))
 (let (($x13558 (not $x19683)))
 (let (($x14575 (or $x13558 $x12019)))
 (let (($x12814 (not $x14575)))
 (let ((?x6356 ((_ extract 7 0) args_14_32)))
 (let (($x18906 (= (_ bv103 8) ?x6356)))
 (let (($x19425 (bvule (_ bv3 64) strlen_442_64)))
 (let (($x14138 (not $x19425)))
 (let (($x15249 (or $x14138 $x18906)))
 (let (($x19177 (not $x15249)))
 (or $x19177 $x12814 $x8413 $x8173 $x20353)))))))))))))))))))))))))))
(assert
 (= (_ bv1 32) strncmp_ret_443_32))
(assert
 (let ((?x16847 (bvadd (_ bv576460752303357874 64) strlen_472_64)))
 (let ((?x7178 ((_ extract 7 0) args_15_64)))
 (let (($x922 (= (_ bv0 8) ?x7178)))
 (let ((?x1100 (ite $x922 (_ bv576460752303357881 64) (_ bv576460752303357882 64))))
 (let ((?x7587 ((_ extract 15 8) args_15_64)))
 (let (($x8179 (= (_ bv0 8) ?x7587)))
 (let ((?x931 (ite $x8179 (_ bv576460752303357880 64) ?x1100)))
 (let ((?x6954 ((_ extract 23 16) args_15_64)))
 (let (($x8128 (= (_ bv0 8) ?x6954)))
 (let ((?x1267 (ite $x8128 (_ bv576460752303357879 64) ?x931)))
 (let ((?x7233 ((_ extract 31 24) args_15_64)))
 (let (($x8118 (= (_ bv0 8) ?x7233)))
 (let ((?x1716 (ite $x8118 (_ bv576460752303357878 64) ?x1267)))
 (let ((?x7510 ((_ extract 39 32) args_15_64)))
 (let (($x8099 (= (_ bv0 8) ?x7510)))
 (let ((?x1719 (ite $x8099 (_ bv576460752303357877 64) ?x1716)))
 (let ((?x6919 ((_ extract 47 40) args_15_64)))
 (let (($x8150 (= (_ bv0 8) ?x6919)))
 (let ((?x1712 (ite $x8150 (_ bv576460752303357876 64) ?x1719)))
 (let ((?x7152 ((_ extract 55 48) args_15_64)))
 (let (($x8149 (= (_ bv0 8) ?x7152)))
 (let ((?x1124 (ite $x8149 (_ bv576460752303357875 64) ?x1712)))
 (let ((?x7096 ((_ extract 63 56) args_15_64)))
 (let (($x7284 (= (_ bv0 8) ?x7096)))
 (let ((?x1107 (ite $x7284 (_ bv576460752303357874 64) ?x1124)))
 (= ?x1107 ?x16847)))))))))))))))))))))))))))
(assert
 (let ((?x7096 ((_ extract 63 56) args_15_64)))
 (let (($x7318 (= (_ bv45 8) ?x7096)))
 (let (($x2531 (not $x7318)))
 (let (($x8263 (= (_ bv6 64) strlen_472_64)))
 (let (($x1533 (not $x8263)))
 (let (($x17965 (bvule (_ bv1 64) strlen_472_64)))
 (let (($x19143 (not $x17965)))
 (let ((?x7152 ((_ extract 55 48) args_15_64)))
 (let (($x13051 (= (_ bv110 8) ?x7152)))
 (let (($x17877 (or $x13051 $x19143)))
 (let (($x11423 (not $x17877)))
 (let (($x6008 (bvule (_ bv2 64) strlen_472_64)))
 (let (($x19612 (not $x6008)))
 (let ((?x6919 ((_ extract 47 40) args_15_64)))
 (let (($x8117 (= (_ bv111 8) ?x6919)))
 (let (($x18837 (or $x8117 $x19612)))
 (let (($x17063 (not $x18837)))
 (let ((?x7510 ((_ extract 39 32) args_15_64)))
 (let (($x18743 (= (_ bv103 8) ?x7510)))
 (let (($x20032 (bvule (_ bv3 64) strlen_472_64)))
 (let (($x10900 (not $x20032)))
 (let (($x17480 (or $x10900 $x18743)))
 (let (($x20432 (not $x17480)))
 (let (($x17776 (bvule (_ bv4 64) strlen_472_64)))
 (let (($x17787 (not $x17776)))
 (let ((?x7233 ((_ extract 31 24) args_15_64)))
 (let (($x16517 (= (_ bv112 8) ?x7233)))
 (let (($x15255 (or $x16517 $x17787)))
 (let (($x15222 (not $x15255)))
 (let (($x19452 (bvule (_ bv5 64) strlen_472_64)))
 (let (($x16403 (not $x19452)))
 (let ((?x6954 ((_ extract 23 16) args_15_64)))
 (let (($x11460 (= (_ bv117 8) ?x6954)))
 (let (($x15336 (or $x11460 $x16403)))
 (let (($x15334 (not $x15336)))
 (or $x15334 $x15222 $x20432 $x17063 $x11423 $x1533 $x2531)))))))))))))))))))))))))))))))))))))
(assert
 (= (_ bv1 32) strncmp_ret_473_32))
(assert
 (let ((?x1452 ((_ extract 15 8) args_16_64)))
 (= (_ bv0 8) ?x1452)))
(assert
 (let ((?x9051 ((_ extract 63 56) args_16_64)))
 (= (_ bv45 8) ?x9051)))
(assert
 (let ((?x2170 ((_ extract 55 48) args_16_64)))
 (= (_ bv110 8) ?x2170)))
(assert
 (let ((?x2108 ((_ extract 47 40) args_16_64)))
 (= (_ bv111 8) ?x2108)))
(assert
 (let ((?x2102 ((_ extract 39 32) args_16_64)))
 (= (_ bv103 8) ?x2102)))
(assert
 (let ((?x2015 ((_ extract 31 24) args_16_64)))
 (= (_ bv112 8) ?x2015)))
(assert
 (let ((?x2105 ((_ extract 23 16) args_16_64)))
 (= (_ bv117 8) ?x2105)))
(assert
 (= (_ bv6 64) strlen_502_64))
(assert
 (= (_ bv0 32) strncmp_ret_503_32))
(assert
 (= (_ bv1 32) strncmp_ret_585_32))
(assert
 (= (_ bv1 32) strncmp_ret_607_32))
(assert
 (= (_ bv1 32) strncmp_ret_638_32))
(assert
 (= (_ bv1 32) strncmp_ret_672_32))
(assert
 (let (($x121 (= (_ bv0 8) args_1_8)))
 (let ((?x123 (ite $x121 (_ bv576460752303357826 64) (_ bv576460752303357827 64))))
 (let ((?x124 (bvsub ?x123 (_ bv576460752303357826 64))))
 (= ?x124 strlen_763_64)))))
(assert
 (let (($x24056 (= (_ bv1 32) strncmp_ret_764_32)))
 (let (($x32866 (bvult strlen_763_64 (_ bv0 64))))
 (let (($x32988 (= (_ bv100 8) args_1_8)))
 (let (($x16601 (or $x32988 $x32866)))
 (let (($x25932 (bvuge strlen_763_64 (_ bv6 64))))
 (let (($x36978 (= (_ bv6 64) strlen_763_64)))
 (let (($x31010 (or $x36978 $x25932)))
 (let (($x25059 (and $x31010 $x16601)))
 (let (($x37896 (not $x25059)))
 (let (($x28502 (and $x37896 $x24056)))
 (let (($x28134 (= (_ bv0 32) strncmp_ret_764_32)))
 (let (($x23665 (and $x31010 $x16601 $x28134)))
 (or $x23665 $x28502))))))))))))))
(minimize strlen_763_64)
(maximize strlen_81_64)
(maximize strlen_87_64)
(maximize strlen_78_64)
(minimize strncmp_ret_82_32)
(maximize strncmp_ret_82_32)
(minimize args_1_8)
(maximize strlen_93_64)
(minimize args_10_32)
(maximize args_4_8)
(minimize strlen_502_64)
(minimize strncmp_ret_293_32)
(maximize strncmp_ret_160_32)
(minimize strlen_236_64)
(maximize strncmp_ret_638_32)
(maximize args_13_32)
(maximize strlen_159_64)
(minimize strlen_713_64)
(minimize strncmp_ret_237_32)
(maximize args_14_32)
(minimize strncmp_ret_353_32)
(maximize strlen_713_64)
(maximize strncmp_ret_192_32)
(maximize strncmp_ret_174_32)
(minimize strlen_671_64)
(minimize strncmp_ret_323_32)
(minimize strlen_213_64)
(maximize strlen_637_64)
(minimize args_6_16)
(minimize args_14_32)
(minimize args_0_8)
(minimize strlen_472_64)
(minimize strlen_637_64)
(maximize args_9_16)
(minimize strncmp_ret_91_32)
(maximize strlen_322_64)
(maximize strlen_292_64)
(maximize args_1_8)
(minimize args_2_8)
(maximize strlen_584_64)
(maximize strlen_382_64)
(minimize strncmp_ret_503_32)
(minimize strncmp_ret_85_32)
(minimize args_11_32)
(maximize strncmp_ret_353_32)
(minimize args_16_64)
(minimize num_bytes_97_64)
(maximize strncmp_ret_150_32)
(minimize strncmp_ret_88_32)
(maximize num_bytes_97_64)
(minimize strlen_382_64)
(minimize strncmp_ret_672_32)
(maximize strncmp_ret_607_32)
(maximize num_bytes_96_64)
(minimize strlen_352_64)
(maximize strncmp_ret_79_32)
(maximize strncmp_ret_214_32)
(minimize strlen_149_64)
(maximize strncmp_ret_85_32)
(minimize strlen_81_64)
(minimize args_9_16)
(minimize args_8_16)
(maximize strncmp_ret_91_32)
(minimize strncmp_ret_585_32)
(minimize strlen_412_64)
(maximize args_3_8)
(maximize args_11_32)
(minimize strlen_322_64)
(minimize args_5_16)
(minimize strncmp_ret_413_32)
(minimize strlen_442_64)
(minimize strlen_584_64)
(maximize strncmp_ret_672_32)
(minimize strlen_159_64)
(maximize strncmp_ret_473_32)
(maximize strlen_262_64)
(maximize strlen_412_64)
(maximize strncmp_ret_585_32)
(maximize args_12_32)
(minimize strncmp_ret_443_32)
(minimize strncmp_ret_473_32)
(minimize strncmp_ret_150_32)
(maximize strncmp_ret_413_32)
(maximize args_15_64)
(maximize strlen_236_64)
(minimize strncmp_ret_94_32)
(maximize strncmp_ret_263_32)
(maximize args_16_64)
(maximize strlen_472_64)
(maximize strlen_90_64)
(minimize args_4_8)
(maximize strncmp_ret_764_32)
(minimize args_12_32)
(minimize strlen_606_64)
(minimize strlen_173_64)
(maximize strlen_84_64)
(maximize strlen_352_64)
(maximize strncmp_ret_383_32)
(maximize num_bytes_95_64)
(check-sat)
(get-objectives)
